GLKH-1.1/TMP/mtspf.pid32175.atsp
NAME : mtspf.pid32175.gtsp
TYPE : ATSP
DIMENSION : 15
EDGE_WEIGHT_TYPE : EXPLICIT
EDGE_WEIGHT_FORMAT : FULL_MATRIX
EDGE_WEIGHT_SECTION
999999 5368709 5368709 5468708 5468708 5468708 5468708 5468708 5468708 5468708 5468708 5268716 5268715 5268716 5268717 
5368709 999999 5368709 5268715 5268716 5268715 5268714 5468708 5468708 5468708 5468708 5468708 5468708 5468708 5468708 
5368709 5368709 999999 5368717 5368718 5368717 5368716 5468708 5468708 5468708 5468708 5468708 5468708 5468708 5468708 
5368709 5368709 5368709 999999 0 10737418 10737418 5468708 5468708 5468708 5468708 5468708 5468708 5468708 5468708 
5368709 5368709 5368709 10737418 999999 0 10737418 5468708 5468708 5468708 5468708 5468708 5468708 5468708 5468708 
5368709 5368709 5368709 10737418 10737418 999999 0 5468708 5468708 5468708 5468708 5468708 5468708 5468708 5468708 
5368709 5368709 5368709 0 10737418 10737418 999999 5468708 5468708 5468708 5468708 5468708 5468708 5468708 5468708 
5368709 5368709 5368709 5368714 5368715 5368714 5368713 999999 0 10737418 10737418 5368712 5368711 5368712 5368713 
5368709 5368709 5368709 5368713 5368714 5368713 5368712 10737418 999999 0 10737418 5368713 5368712 5368713 5368714 
5368709 5368709 5368709 5368712 5368713 5368712 5368711 10737418 10737418 999999 0 5368714 5368713 5368714 5368715 
5368709 5368709 5368709 5368713 5368714 5368713 5368712 0 10737418 10737418 999999 5368713 5368712 5368713 5368714 
5368709 5368709 5368709 5368716 5368717 5368716 5368715 5468708 5468708 5468708 5468708 999999 0 10737418 10737418 
5368709 5368709 5368709 5368715 5368716 5368715 5368714 5468708 5468708 5468708 5468708 10737418 999999 0 10737418 
5368709 5368709 5368709 5368714 5368715 5368714 5368713 5468708 5468708 5468708 5468708 10737418 10737418 999999 0 
5368709 5368709 5368709 5368715 5368716 5368715 5368714 5468708 5468708 5468708 5468708 0 10737418 10737418 999999 
EOF
